100
128
60
17
11
48
34
10
32
11
17
25
10
42
31
31
3
14
37
13
38
1
5
30
59
38
21
32
10
48
20
22
38
28
18
18
24
35
9
44
2
56
10
15
43
11
9
20
8
58
22
15
14
11
22
32
12
15
14
9
25
14
8
45
23
25
15
9
13
44
14
42
44
57
9
61
25
45
42
44
45
20
35
48
44
41
61
11
63
31
29
32
1
16
18
63
20
46
62
36
43
49